SDVRP instances/custom_instances/p01_14_splitx10_0.vrp
NAME:p01_14_splitx10_
BEST_KNOWN: 0
COMMENT: 0
DIMENSION: 255
CAPACITY: 1600
EDGE_WEIGHT_FORMAT: FUNCTION
EDGE_WEIGHT_TYPE: EXACT_2D
NODE_COORD_SECTION
1 0.00000 0.00000
2 -42 -22
3 -42 -22
4 -42 -22
5 -42 -22
6 -15 -3
7 -15 -3
8 -15 -3
9 -15 -3
10 -15 -3
11 -15 -3
12 -15 -3
13 1 -43
14 1 -43
15 1 -43
16 1 -43
17 48 50
18 48 50
19 48 50
20 48 50
21 48 50
22 48 50
23 48 50
24 18 20
25 18 20
26 18 20
27 18 20
28 18 20
29 -39 33
30 -39 33
31 -39 33
32 -39 33
33 -39 33
34 -39 33
35 -20 -17
36 -20 -17
37 -20 -17
38 -20 -17
39 -20 -17
40 -20 -17
41 -20 -17
42 40 43
43 40 43
44 40 43
45 40 43
46 40 43
47 40 43
48 40 43
49 -22 43
50 -22 43
51 -22 43
52 -22 43
53 -22 43
54 -22 43
55 -22 43
56 39 -43
57 39 -43
58 39 -43
59 39 -43
60 -41 9
61 -41 9
62 -41 9
63 -41 9
64 -41 9
65 -41 9
66 35 8
67 35 8
68 35 8
69 35 8
70 35 8
71 35 8
72 -13 13
73 -13 13
74 -13 13
75 -13 13
76 -13 13
77 -13 13
78 -13 13
79 2 38
80 2 38
81 2 38
82 2 38
83 2 38
84 -39 -23
85 -39 -23
86 -39 -23
87 -39 -23
88 -46 -4
89 -46 -4
90 -46 -4
91 -46 -4
92 -46 -4
93 21 45
94 21 45
95 21 45
96 -12 18
97 -12 18
98 -12 18
99 -12 18
100 -12 18
101 -25 -6
102 -25 -6
103 -25 -6
104 -25 -6
105 -25 -6
106 -25 -6
107 -45 46
108 -45 46
109 -45 46
110 -45 46
111 -45 46
112 -45 46
113 -45 46
114 -45 46
115 32 -35
116 41 -4
117 41 -4
118 41 -4
119 41 -4
120 41 -4
121 4 21
122 4 21
123 4 21
124 -35 -6
125 -35 -6
126 -35 -6
127 -35 -6
128 -35 -6
129 -35 -6
130 -35 -6
131 29 42
132 29 42
133 29 42
134 29 42
135 29 42
136 38 -50
137 38 -50
138 38 -50
139 38 -50
140 38 -50
141 -14 -34
142 -14 -34
143 -14 -34
144 -14 -34
145 -14 -34
146 26 -31
147 26 -31
148 26 -31
149 26 -31
150 -4 20
151 -4 20
152 -4 20
153 -4 20
154 5 -29
155 5 -29
156 5 -29
157 5 -29
158 39 21
159 39 21
160 39 21
161 39 21
162 39 21
163 39 21
164 47 -49
165 47 -49
166 47 -49
167 47 -49
168 47 -49
169 40 18
170 40 18
171 40 18
172 -8 -50
173 -8 -50
174 40 24
175 40 24
176 40 24
177 40 24
178 40 24
179 42 22
180 42 22
181 42 22
182 42 22
183 42 22
184 42 22
185 30 -8
186 30 -8
187 30 -8
188 30 -8
189 30 -8
190 -15 26
191 -15 26
192 -15 26
193 -15 26
194 33 -23
195 33 -23
196 33 -23
197 33 -23
198 33 -23
199 33 -23
200 -34 -23
201 -34 -23
202 -34 -23
203 -34 -23
204 -34 -23
205 -34 -23
206 -34 -23
207 -38 -6
208 -38 -6
209 -17 -50
210 -17 -50
211 -17 -50
212 -17 -50
213 -17 -50
214 -17 -50
215 27 -41
216 27 -41
217 27 -41
218 27 -41
219 27 -41
220 27 -41
221 -28 -50
222 -28 -50
223 -28 -50
224 -28 -50
225 -28 -50
226 -28 -50
227 26 -42
228 26 -42
229 26 -42
230 26 -42
231 26 -42
232 46 47
233 46 47
234 46 47
235 46 47
236 46 47
237 -34 -49
238 -34 -49
239 -34 -49
240 -34 -49
241 15 19
242 15 19
243 15 19
244 15 19
245 15 19
246 15 19
247 15 19
248 47 -3
249 47 -3
250 47 -3
251 29 -27
252 29 -27
253 29 -27
254 29 -27
255 29 -27
DEMAND_SECTION
1 0
2 320
3 320
4 80
5 10
6 320
7 160
8 80
9 16
10 16
11 16
12 2
13 320
14 16
15 16
16 8
17 320
18 160
19 80
20 16
21 16
22 16
23 2
24 320
25 320
26 80
27 16
28 4
29 160
30 80
31 16
32 16
33 16
34 12
35 320
36 160
37 80
38 16
39 16
40 16
41 2
42 320
43 320
44 16
45 16
46 16
47 16
48 6
49 320
50 80
51 16
52 16
53 16
54 16
55 6
56 320
57 320
58 16
59 4
60 320
61 160
62 16
63 16
64 16
65 12
66 320
67 320
68 16
69 16
70 16
71 2
72 320
73 160
74 16
75 16
76 16
77 16
78 6
79 320
80 320
81 16
82 16
83 8
84 320
85 320
86 80
87 10
88 160
89 80
90 16
91 16
92 8
93 320
94 16
95 4
96 160
97 16
98 16
99 16
100 12
101 320
102 320
103 16
104 16
105 16
106 2
107 320
108 320
109 80
110 16
111 16
112 16
113 16
114 6
115 320
116 160
117 16
118 16
119 16
120 2
121 320
122 320
123 160
124 320
125 320
126 80
127 16
128 16
129 16
130 2
131 320
132 160
133 80
134 16
135 14
136 160
137 16
138 16
139 16
140 2
141 320
142 160
143 80
144 16
145 14
146 320
147 16
148 16
149 8
150 320
151 160
152 80
153 10
154 160
155 80
156 16
157 14
158 320
159 80
160 16
161 16
162 16
163 12
164 160
165 16
166 16
167 16
168 2
169 320
170 320
171 80
172 320
173 320
174 160
175 16
176 16
177 16
178 12
179 320
180 320
181 16
182 16
183 16
184 12
185 320
186 80
187 16
188 16
189 8
190 320
191 160
192 80
193 10
194 160
195 80
196 16
197 16
198 16
199 12
200 320
201 320
202 16
203 16
204 16
205 16
206 6
207 160
208 80
209 320
210 160
211 80
212 16
213 16
214 8
215 320
216 160
217 16
218 16
219 16
220 2
221 160
222 80
223 16
224 16
225 16
226 12
227 160
228 16
229 16
230 16
231 12
232 160
233 16
234 16
235 16
236 12
237 320
238 320
239 16
240 14
241 160
242 80
243 16
244 16
245 16
246 16
247 6
248 320
249 320
250 80
251 160
252 80
253 16
254 16
255 8
DEPOT_SECTION
1
-1
EOF