SDVRP instances/custom_instances/p01_14_splitx10_0.sol
254 -1 3 4 2 85 84 86 83 205 203 39 36 37 -7 123 124 127 126 125 129 128 102 100 105 103 104 101 -9 6 11 10 8 5 207 206 91 89 90 87 88 60 64 63 59 62 61 -27 25 26 24 23 246 243 244 245 241 240 242 -31 28 30 33 29 32 106 112 111 108 107 109 110 113 50 49 51 52 48 53 54 -38 40 34 35 202 200 204 199 201 140 142 -44 46 47 45 43 42 41 232 231 234 233 235 19 21 22 20 18 16 17 134 -66 68 67 65 70 69 170 168 169 -72 74 75 77 73 76 71 190 191 189 192 99 98 96 95 97 -82 79 78 80 81 94 93 92 132 133 131 130 -120 121 122 151 150 149 152 -137 139 135 136 138 166 164 165 163 167 58 55 56 57 114 254 251 253 252 -144 143 141 171 172 12 15 13 14 156 154 155 153 -161 158 159 157 160 162 178 180 181 179 182 183 177 174 173 176 175 -188 186 184 185 187 118 119 115 116 117 249 248 247 -198 196 194 195 197 193 250 145 147 146 148 217 216 219 215 218 214 228 230 226 227 229 -208 209 210 213 212 211 223 221 222 225 220 224 239 238 236 237 0 





OBJ=
1708.806
BEST_KNOWN=
0.000